solution status: optimal solution found
objective value:                                   14
x29                                                 1 	(obj:1)
x31                                                 1 	(obj:1)
x32                                                 1 	(obj:1)
x34                                                 1 	(obj:1)
x38                                                 1 	(obj:1)
x39                                                 1 	(obj:1)
x40                                                 1 	(obj:1)
x51                                                 1 	(obj:1)
x52                                                 1 	(obj:1)
x53                                                 1 	(obj:1)
x55                                                 1 	(obj:1)
x56                                                 1 	(obj:1)
x57                                                 1 	(obj:1)
x58                                                 1 	(obj:1)
one.thingy.devices[2].thingy.vs2_y                   22 	(obj:0)
one.thingy.devices[2].thingy.vs2_z                   19 	(obj:0)
one.thingy.devices[0].thingy.circulate1_y                   22 	(obj:0)
one.thingy.devices[0].thingy.circulate1_z                   22 	(obj:0)
one.pump_b[1].hole_y                               17 	(obj:0)
one.pump_b[1].hole_z                               17 	(obj:0)
one.pump_b[1].flush_y                              17 	(obj:0)
one.pump_b[1].flush_z                              14 	(obj:0)
one.pump_a[2].flush_y                              18 	(obj:0)
one.pump_a[2].flush_z                              14 	(obj:0)
one.pump_a[2].hole_y                               18 	(obj:0)
one.pump_a[2].hole_z                               18 	(obj:0)
one.thingy.devices[0].thingy.vs2_y                   21 	(obj:0)
one.thingy.devices[0].thingy.vs2_z                   21 	(obj:0)
one.thingy.devices[1].thingy.vs2_y                   20 	(obj:0)
one.thingy.devices[1].thingy.vs2_z                   20 	(obj:0)
one.thingy.devices[1].thingy.circulate1_y                   23 	(obj:0)
one.thingy.devices[1].thingy.circulate1_z                   21 	(obj:0)
one.thingy.devices[3].thingy.circulate1_y                   22 	(obj:0)
one.thingy.devices[3].thingy.circulate1_z                   18 	(obj:0)
one.thingy.devices[2].thingy.circulate1_y                   22 	(obj:0)
one.thingy.devices[2].thingy.circulate1_z                   21 	(obj:0)
one.thingy.devices[3].thingy.vs2_y                   21 	(obj:0)
one.thingy.devices[3].thingy.vs2_z                   18 	(obj:0)
